\ Model UFL
\ LP format - for model browsing. Use MPS format to capture full model detail.
Minimize
  C320 + C321 + C322 + C323 + C324 + C325 + C326 + C327 + C328 + C329 + C330
   + C331 + C332 + C333 + C334 + C335 + C336 + C337 + C338 + C339 + C340
   + C341 + C342 + C343 + C344 + C345 + C346 + C347 + C348 + C349 + C350
   + C351 + C352 + C353 + C354 + C355 + C356 + C357 + C358 + C359 + C360
   + C361 + C362 + C363 + C364 + C365 + C366 + C367 + C368 + C369 + C370
   + C371 + C372 + C373 + C374 + C375 + C376 + C377 + C378 + C379 + C380
   + C381 + C382 + C383 + C384 + C385 + C386 + C387 + C388 + C389 + C390
   + C391 + C392 + C393 + C394 + C395 + C396 + C397 + C398 + C399 + C400
   + C401 + C402 + C403 + C404 + C405 + C406 + C407 + C408 + C409 + C410
   + C411 + C412 + C413 + C414 + C415 + C416 + C417 + C418 + C419 + C420
   + C421 + C422 + C423 + C424 + C425 + C426 + C427 + C428 + C429 + C430
   + C431 + C432 + C433 + C434 + C435 + C436 + C437 + C438 + C439 + C440
   + C441 + C442 + C443 + C444 + C445 + C446 + C447 + C448 + C449 + C450
   + C451 + C452 + C453 + C454 + C455 + C456 + C457 + C458 + C459 + C460
   + C461 + C462 + C463 + C464 + C465 + C466 + C467 + C468 + C469 + C470
   + C471 + C472 + C473 + C474 + C475 + C476 + C477 + C478 + C479 + C480
   + C481 + C482 + C483 + C484 + C485 + C486 + C487 + C488 + C489 + C490
   + C491 + C492 + C493 + C494 + C495 + C496 + C497 + C498 + C499 + C500
   + C501 + C502 + C503 + C504 + C505 + C506 + C507 + C508 + C509 + C510
   + C511 + C512 + C513 + C514 + C515 + C516 + C517 + C518 + C519 + C520
   + C521 + C522 + C523 + C524 + C525 + C526 + C527 + C528 + C529 + C530
   + C531 + C532 + C533 + C534 + C535 + C536 + C537 + C538 + C539
Subject To
 R0: C0 + C1 + C2 + C3 + C4 + C5 + C6 + C7 + C8 + C9 >= 38
 R1: C10 + C11 + C12 + C13 + C14 + C15 + C16 + C17 + C18 + C19 - C110 = 0
 R2: C20 + C21 + C22 + C23 + C24 + C25 + C26 + C27 + C28 + C29 - C111 = 0
 R3: C30 + C31 + C32 + C33 + C34 + C35 + C36 + C37 + C38 + C39 - C112 = 0
 R4: C40 + C41 + C42 + C43 + C44 + C45 + C46 + C47 + C48 + C49 - C113 = 0
 R5: C50 + C51 + C52 + C53 + C54 + C55 + C56 + C57 + C58 + C59 - C114 = 0
 R6: C60 + C61 + C62 + C63 + C64 + C65 + C66 + C67 + C68 + C69 - C115 = 0
 R7: C70 + C71 + C72 + C73 + C74 + C75 + C76 + C77 + C78 + C79 - C116 = 0
 R8: C80 + C81 + C82 + C83 + C84 + C85 + C86 + C87 + C88 + C89 - C117 = 0
 R9: C90 + C91 + C92 + C93 + C94 + C95 + C96 + C97 + C98 + C99 - C118 = 0
 R10: C100 + C101 + C102 + C103 + C104 + C105 + C106 + C107 + C108 + C109
   - C119 = 0
 R11: C0 - C10 + C120 - C220 = 0
 R12: C1 - C11 + C121 - C221 = 0
 R13: C2 - C12 + C122 - C222 = 0
 R14: C3 - C13 + C123 - C223 = 0
 R15: C4 - C14 + C124 - C224 = 0
 R16: C5 - C15 + C125 - C225 = 0
 R17: C6 - C16 + C126 - C226 = 0
 R18: C7 - C17 + C127 - C227 = 0
 R19: C8 - C18 + C128 - C228 = 0
 R20: C9 - C19 + C129 - C229 = 0
 R21: C0 - C20 + C130 - C230 = 0
 R22: C1 - C21 + C131 - C231 = 0
 R23: C2 - C22 + C132 - C232 = 0
 R24: C3 - C23 + C133 - C233 = 0
 R25: C4 - C24 + C134 - C234 = 0
 R26: C5 - C25 + C135 - C235 = 0
 R27: C6 - C26 + C136 - C236 = 0
 R28: C7 - C27 + C137 - C237 = 0
 R29: C8 - C28 + C138 - C238 = 0
 R30: C9 - C29 + C139 - C239 = 0
 R31: C0 - C30 + C140 - C240 = 0
 R32: C1 - C31 + C141 - C241 = 0
 R33: C2 - C32 + C142 - C242 = 0
 R34: C3 - C33 + C143 - C243 = 0
 R35: C4 - C34 + C144 - C244 = 0
 R36: C5 - C35 + C145 - C245 = 0
 R37: C6 - C36 + C146 - C246 = 0
 R38: C7 - C37 + C147 - C247 = 0
 R39: C8 - C38 + C148 - C248 = 0
 R40: C9 - C39 + C149 - C249 = 0
 R41: C0 - C40 + C150 - C250 = 0
 R42: C1 - C41 + C151 - C251 = 0
 R43: C2 - C42 + C152 - C252 = 0
 R44: C3 - C43 + C153 - C253 = 0
 R45: C4 - C44 + C154 - C254 = 0
 R46: C5 - C45 + C155 - C255 = 0
 R47: C6 - C46 + C156 - C256 = 0
 R48: C7 - C47 + C157 - C257 = 0
 R49: C8 - C48 + C158 - C258 = 0
 R50: C9 - C49 + C159 - C259 = 0
 R51: C0 - C50 + C160 - C260 = 0
 R52: C1 - C51 + C161 - C261 = 0
 R53: C2 - C52 + C162 - C262 = 0
 R54: C3 - C53 + C163 - C263 = 0
 R55: C4 - C54 + C164 - C264 = 0
 R56: C5 - C55 + C165 - C265 = 0
 R57: C6 - C56 + C166 - C266 = 0
 R58: C7 - C57 + C167 - C267 = 0
 R59: C8 - C58 + C168 - C268 = 0
 R60: C9 - C59 + C169 - C269 = 0
 R61: C0 - C60 + C170 - C270 = 0
 R62: C1 - C61 + C171 - C271 = 0
 R63: C2 - C62 + C172 - C272 = 0
 R64: C3 - C63 + C173 - C273 = 0
 R65: C4 - C64 + C174 - C274 = 0
 R66: C5 - C65 + C175 - C275 = 0
 R67: C6 - C66 + C176 - C276 = 0
 R68: C7 - C67 + C177 - C277 = 0
 R69: C8 - C68 + C178 - C278 = 0
 R70: C9 - C69 + C179 - C279 = 0
 R71: C0 - C70 + C180 - C280 = 0
 R72: C1 - C71 + C181 - C281 = 0
 R73: C2 - C72 + C182 - C282 = 0
 R74: C3 - C73 + C183 - C283 = 0
 R75: C4 - C74 + C184 - C284 = 0
 R76: C5 - C75 + C185 - C285 = 0
 R77: C6 - C76 + C186 - C286 = 0
 R78: C7 - C77 + C187 - C287 = 0
 R79: C8 - C78 + C188 - C288 = 0
 R80: C9 - C79 + C189 - C289 = 0
 R81: C0 - C80 + C190 - C290 = 0
 R82: C1 - C81 + C191 - C291 = 0
 R83: C2 - C82 + C192 - C292 = 0
 R84: C3 - C83 + C193 - C293 = 0
 R85: C4 - C84 + C194 - C294 = 0
 R86: C5 - C85 + C195 - C295 = 0
 R87: C6 - C86 + C196 - C296 = 0
 R88: C7 - C87 + C197 - C297 = 0
 R89: C8 - C88 + C198 - C298 = 0
 R90: C9 - C89 + C199 - C299 = 0
 R91: C0 - C90 + C200 - C300 = 0
 R92: C1 - C91 + C201 - C301 = 0
 R93: C2 - C92 + C202 - C302 = 0
 R94: C3 - C93 + C203 - C303 = 0
 R95: C4 - C94 + C204 - C304 = 0
 R96: C5 - C95 + C205 - C305 = 0
 R97: C6 - C96 + C206 - C306 = 0
 R98: C7 - C97 + C207 - C307 = 0
 R99: C8 - C98 + C208 - C308 = 0
 R100: C9 - C99 + C209 - C309 = 0
 R101: C0 - C100 + C210 - C310 = 0
 R102: C1 - C101 + C211 - C311 = 0
 R103: C2 - C102 + C212 - C312 = 0
 R104: C3 - C103 + C213 - C313 = 0
 R105: C4 - C104 + C214 - C314 = 0
 R106: C5 - C105 + C215 - C315 = 0
 R107: C6 - C106 + C216 - C316 = 0
 R108: C7 - C107 + C217 - C317 = 0
 R109: C8 - C108 + C218 - C318 = 0
 R110: C9 - C109 + C219 - C319 = 0
 R111: C110 + C115 + C221 + C225 + C226 + C227 + C229 + C270 + C272 + C273
   + C274 + C278 = 38
 R112: C110 - C320 + C330 = 7
 R113: C111 - C321 + C331 = 6
 R114: C112 - C322 + C332 = 18
 R115: C113 - C323 + C333 = 13
 R116: C114 - C324 + C334 = 9
 R117: C115 - C325 + C335 = 13
 R118: C116 - C326 + C336 = 12
 R119: C117 - C327 + C337 = 20
 R120: C118 - C328 + C338 = 15
 R121: C119 - C329 + C339 = 14
 R122: C220 - C340 + C440 = 9
 R123: C221 - C341 + C441 = 0
 R124: C222 - C342 + C442 = 6
 R125: C223 - C343 + C443 = 10
 R126: C224 - C344 + C444 = 5
 R127: C225 - C345 + C445 = 1
 R128: C226 - C346 + C446 = 6
 R129: C227 - C347 + C447 = 2
 R130: C228 - C348 + C448 = 4
 R131: C229 - C349 + C449 = 1
 R132: C230 - C350 + C450 = 1
 R133: C231 - C351 + C451 = 8
 R134: C232 - C352 + C452 = 3
 R135: C233 - C353 + C453 = 5
 R136: C234 - C354 + C454 = 5
 R137: C235 - C355 + C455 = 0
 R138: C236 - C356 + C456 = 9
 R139: C237 - C357 + C457 = 5
 R140: C238 - C358 + C458 = 10
 R141: C239 - C359 + C459 = 6
 R142: C240 - C360 + C460 = 9
 R143: C241 - C361 + C461 = 2
 R144: C242 - C362 + C462 = 1
 R145: C243 - C363 + C463 = 2
 R146: C244 - C364 + C464 = 1
 R147: C245 - C365 + C465 = 2
 R148: C246 - C366 + C466 = 9
 R149: C247 - C367 + C467 = 8
 R150: C248 - C368 + C468 = 9
 R151: C249 - C369 + C469 = 1
 R152: C250 - C370 + C470 = 1
 R153: C251 - C371 + C471 = 10
 R154: C252 - C372 + C472 = 5
 R155: C253 - C373 + C473 = 8
 R156: C254 - C374 + C474 = 3
 R157: C255 - C375 + C475 = 1
 R158: C256 - C376 + C476 = 5
 R159: C257 - C377 + C477 = 4
 R160: C258 - C378 + C478 = 9
 R161: C259 - C379 + C479 = 2
 R162: C260 - C380 + C480 = 2
 R163: C261 - C381 + C481 = 2
 R164: C262 - C382 + C482 = 10
 R165: C263 - C383 + C483 = 7
 R166: C264 - C384 + C484 = 2
 R167: C265 - C385 + C485 = 7
 R168: C266 - C386 + C486 = 2
 R169: C267 - C387 + C487 = 4
 R170: C268 - C388 + C488 = 9
 R171: C269 - C389 + C489 = 6
 R172: C270 - C390 + C490 = 1
 R173: C271 - C391 + C491 = 6
 R174: C272 - C392 + C492 = 2
 R175: C273 - C393 + C493 = 1
 R176: C274 - C394 + C494 = 2
 R177: C275 - C395 + C495 = 5
 R178: C276 - C396 + C496 = 7
 R179: C277 - C397 + C497 = 5
 R180: C278 - C398 + C498 = 2
 R181: C279 - C399 + C499 = 2
 R182: C280 - C400 + C500 = 9
 R183: C281 - C401 + C501 = 3
 R184: C282 - C402 + C502 = 3
 R185: C283 - C403 + C503 = 9
 R186: C284 - C404 + C504 = 1
 R187: C285 - C405 + C505 = 7
 R188: C286 - C406 + C506 = 3
 R189: C287 - C407 + C507 = 3
 R190: C288 - C408 + C508 = 8
 R191: C289 - C409 + C509 = 6
 R192: C290 - C410 + C510 = 6
 R193: C291 - C411 + C511 = 8
 R194: C292 - C412 + C512 = 6
 R195: C293 - C413 + C513 = 3
 R196: C294 - C414 + C514 = 2
 R197: C295 - C415 + C515 = 6
 R198: C296 - C416 + C516 = 3
 R199: C297 - C417 + C517 = 10
 R200: C298 - C418 + C518 = 2
 R201: C299 - C419 + C519 = 8
 R202: C300 - C420 + C520 = 9
 R203: C301 - C421 + C521 = 5
 R204: C302 - C422 + C522 = 6
 R205: C303 - C423 + C523 = 4
 R206: C304 - C424 + C524 = 10
 R207: C305 - C425 + C525 = 7
 R208: C306 - C426 + C526 = 8
 R209: C307 - C427 + C527 = 4
 R210: C308 - C428 + C528 = 1
 R211: C309 - C429 + C529 = 5
 R212: C310 - C430 + C530 = 8
 R213: C311 - C431 + C531 = 7
 R214: C312 - C432 + C532 = 4
 R215: C313 - C433 + C533 = 5
 R216: C314 - C434 + C534 = 2
 R217: C315 - C435 + C535 = 7
 R218: C316 - C436 + C536 = 2
 R219: C317 - C437 + C537 = 7
 R220: C318 - C438 + C538 = 1
 R221: C319 - C439 + C539 = 6
Bounds
End
